     Program PHONON v.6.4.1 starts on  8Apr2022 at 12:22:20

     Reading data from directory:
     ./tmp/Si.save/

     IMPORTANT: XC functional enforced from input :
     Exchange-correlation      = PBE ( 1  4  3  4 0 0)
     Any further DFT definition will be discarded
     Please, verify this is what you really want

     Dynamical matrices for ( 3, 3, 3)  uniform grid of q-points
     (   4 q-points):
       N         xq(1)         xq(2)         xq(3)
       1   0.000000000   0.000000000   0.000000000
       2  -0.333333333   0.333333333  -0.333333333
       3   0.000000000   0.666666667   0.000000000
       4   0.666666667  -0.000000000   0.666666667

     Calculation of q =    0.0000000   0.0000000   0.0000000

     bravais-lattice index     =            2
     lattice parameter (alat)  =      10.2625  a.u.
     unit-cell volume          =     270.2088 (a.u.)^3
     number of atoms/cell      =            2
     number of atomic types    =            1
     kinetic-energy cut-off    =      60.0000  Ry
     charge density cut-off    =     240.0000  Ry
     convergence threshold     =      1.0E-16
     beta                      =       0.7000
     number of iterations used =            4
     Exchange-correlation      = PBE ( 1  4  3  4 0 0)

     celldm(1)=   10.26250  celldm(2)=    0.00000  celldm(3)=    0.00000
     celldm(4)=    0.00000  celldm(5)=    0.00000  celldm(6)=    0.00000

     crystal axes: (cart. coord. in units of alat)
               a(1) = ( -0.5000  0.0000  0.5000 )
               a(2) = (  0.0000  0.5000  0.5000 )
               a(3) = ( -0.5000  0.5000  0.0000 )

     reciprocal axes: (cart. coord. in units 2 pi/alat)
               b(1) = ( -1.0000 -1.0000  1.0000 )
               b(2) = (  1.0000  1.0000  1.0000 )
               b(3) = ( -1.0000  1.0000 -1.0000 )

     Atoms inside the unit cell:

     Cartesian axes

     site n.  atom      mass           positions (alat units)
        1     Si  28.0850   tau(    1) = (    0.00000    0.00000    0.00000  )
        2     Si  28.0850   tau(    2) = (    0.25000    0.25000    0.25000  )

     Computing dynamical matrix for
                    q = (   0.0000000   0.0000000   0.0000000 )

     49 Sym.Ops. (with q -> -q+G )

     G cutoff =  640.2622  (  16889 G-vectors)     FFT grid: ( 36, 36, 36)
     number of k points=     8

     PseudoPot. # 1 for Si read from file:
     ./Si.pbe-n-rrkjus_psl.0.1.UPF
     MD5 check sum: 7b4bf2ea543dc08298462eff3fb52eea
     Pseudo is Ultrasoft + core correction, Zval =  4.0
     Generated using "atomic" code by A. Dal Corso v.5.0.2 svn rev. 9415
     Using radial grid of 1141 points,  4 beta functions with:
                l(1) =   0
                l(2) =   0
                l(3) =   1
                l(4) =   1
     Q(r) pseudized with 0 coefficients

     Mode symmetry, O_h (m-3m)  point group:

     Electric field:
     Dielectric constant
     Born effective charges in two ways

     Atomic displacements:
     There are   2 irreducible representations

     Representation     1      3 modes -T_2g G_25' G_5+  To be done

     Representation     2      3 modes -T_1u G_15  G_4-  To be done

     Alpha used in Ewald sum =   2.5000

     Electric Fields Calculation

      thresh= 1.000E-02 alpha_mix =  0.700 |ddv_scf|^2 =  1.719E-07

[...]

     End of electric fields calculation

          Dielectric constant in cartesian axis

          (      23.563250761       0.000000000       0.000000000 )
          (       0.000000000      23.563250761      -0.000000000 )
          (       0.000000000      -0.000000000      23.563250761 )

          Effective charges (d Force / dE) in cartesian axis

           atom      1   Si
      Ex  (       -1.17493        0.00000        0.00000 )
      Ey  (        0.00000       -1.17493       -0.00000 )
      Ez  (        0.00000        0.00000       -1.17493 )
           atom      2   Si
      Ex  (       -1.17493        0.00000        0.00000 )
      Ey  (        0.00000       -1.17493        0.00000 )
      Ez  (        0.00000        0.00000       -1.17493 )

     Representation #  1 modes #   1  2  3

     Self-consistent Calculation

[...]

     End of self-consistent calculation

     Convergence has been achieved

[...]

     Number of q in the star =    1
     List of q in the star:
          1   0.000000000   0.000000000   0.000000000

          Dielectric constant in cartesian axis

          (      23.563250761       0.000000000       0.000000000 )
          (       0.000000000      23.563250761      -0.000000000 )
          (       0.000000000      -0.000000000      23.563250761 )

          Effective charges (d Force / dE) in cartesian axis

[...]

          Effective charges (d P / du) in cartesian axis

           atom      1   Si
      Px  (       -1.17497        0.00000        0.00000 )
      Py  (        0.00000       -1.17497        0.00000 )
      Pz  (       -0.00000        0.00000       -1.17497 )
           atom      2   Si
      Px  (       -1.17497        0.00000        0.00000 )
      Py  (       -0.00000       -1.17497       -0.00000 )
      Pz  (        0.00000       -0.00000       -1.17497 )

     Diagonalizing the dynamical matrix

     q = (    0.000000000   0.000000000   0.000000000 )

     freq (    1) =       0.367066 [THz] =      12.243996 [cm-1]
     freq (    2) =       0.367066 [THz] =      12.243996 [cm-1]
     freq (    3) =       0.367066 [THz] =      12.243996 [cm-1]
     freq (    4) =      15.635413 [THz] =     521.541249 [cm-1]
     freq (    5) =      15.635413 [THz] =     521.541249 [cm-1]
     freq (    6) =      15.635413 [THz] =     521.541249 [cm-1]

     Mode symmetry, O_h (m-3m)  point group:

     freq (  1 -  3) =         12.2  [cm-1]   --> T_1u G_15  G_4- I
     freq (  4 -  6) =        521.5  [cm-1]   --> T_2g G_25' G_5+ R

[...]

     Subspace diagonalization in iterative solution of the eigenvalue problem:
     a serial algorithm will be used

     bravais-lattice index     =            2
     lattice parameter (alat)  =      10.2625  a.u.
     unit-cell volume          =     270.2088 (a.u.)^3
     number of atoms/cell      =            2
     number of atomic types    =            1
     number of electrons       =         8.00
     number of Kohn-Sham states=            4
     kinetic-energy cutoff     =      60.0000  Ry
     charge density cutoff     =     240.0000  Ry
     Exchange-correlation      = PBE ( 1  4  3  4 0 0)

[...]

     atomic species   valence    mass     pseudopotential
        Si             4.00    28.08500     Si( 1.00)

     48 Sym. Ops., with inversion, found

[...]

     site n.     atom                  positions (alat units)
         1           Si  tau(   1) = (   0.0000000   0.0000000   0.0000000  )
         2           Si  tau(   2) = (   0.2500000   0.2500000   0.2500000  )

     number of k points=    40
                       cart. coord. in units 2pi/alat
        k(    1) = (   0.0000000   0.0000000   0.0000000), wk =   0.0312500
        k(    2) = (  -0.3333333   0.3333333  -0.3333333), wk =   0.0000000
        k(    3) = (  -0.2500000   0.2500000  -0.2500000), wk =   0.0312500
        k(    4) = (  -0.5833333   0.5833333  -0.5833333), wk =   0.0000000
        k(    5) = (   0.5000000  -0.5000000   0.5000000), wk =   0.0312500
        k(    6) = (   0.1666667  -0.1666667   0.1666667), wk =   0.0000000
        k(    7) = (   0.0000000   0.5000000   0.0000000), wk =   0.0937500
        k(    8) = (  -0.3333333   0.8333333  -0.3333333), wk =   0.0000000
        k(    9) = (   0.7500000  -0.2500000   0.7500000), wk =   0.0937500
        k(   10) = (   0.4166667   0.0833333   0.4166667), wk =   0.0000000
        k(   11) = (   0.5000000   0.0000000   0.5000000), wk =   0.0937500
        k(   12) = (   0.1666667   0.3333333   0.1666667), wk =   0.0000000
        k(   13) = (   0.0000000  -1.0000000   0.0000000), wk =   0.0937500
        k(   14) = (  -0.3333333  -0.6666667  -0.3333333), wk =   0.0000000
        k(   15) = (  -0.5000000  -1.0000000   0.0000000), wk =   0.1875000
        k(   16) = (  -0.8333333  -0.6666667  -0.3333333), wk =   0.0000000
        k(   17) = (   0.2500000   0.2500000  -0.2500000), wk =   0.0937500
        k(   18) = (  -0.0833333   0.5833333  -0.5833333), wk =   0.0000000
        k(   19) = (   0.2500000   0.2500000   0.2500000), wk =   0.0937500
        k(   20) = (  -0.0833333   0.5833333  -0.0833333), wk =   0.0000000
        k(   21) = (   0.2500000  -0.2500000   0.2500000), wk =   0.0312500
        k(   22) = (  -0.0833333   0.0833333  -0.0833333), wk =   0.0000000
        k(   23) = (  -0.5000000  -0.5000000   0.5000000), wk =   0.0937500
        k(   24) = (  -0.8333333  -0.1666667   0.1666667), wk =   0.0000000
        k(   25) = (   0.0000000  -0.5000000   0.0000000), wk =   0.0937500
        k(   26) = (  -0.3333333  -0.1666667  -0.3333333), wk =   0.0000000
        k(   27) = (  -0.7500000  -0.2500000   0.7500000), wk =   0.1875000
        k(   28) = (  -1.0833333   0.0833333   0.4166667), wk =   0.0000000
        k(   29) = (  -0.7500000  -0.2500000  -0.7500000), wk =   0.0937500
        k(   30) = (  -1.0833333   0.0833333  -1.0833333), wk =   0.0000000
        k(   31) = (  -0.7500000   0.2500000  -0.7500000), wk =   0.0937500
        k(   32) = (  -1.0833333   0.5833333  -1.0833333), wk =   0.0000000
        k(   33) = (   0.7500000   0.2500000   0.7500000), wk =   0.0937500
        k(   34) = (   0.4166667   0.5833333   0.4166667), wk =   0.0000000
        k(   35) = (  -0.2500000   0.7500000   0.7500000), wk =   0.1875000
        k(   36) = (  -0.5833333   1.0833333   0.4166667), wk =   0.0000000
        k(   37) = (  -0.5000000   0.0000000   0.5000000), wk =   0.1875000
        k(   38) = (  -0.8333333   0.3333333   0.1666667), wk =   0.0000000
        k(   39) = (  -0.5000000   0.0000000  -0.5000000), wk =   0.0937500
        k(   40) = (  -0.8333333   0.3333333  -0.8333333), wk =   0.0000000

     The potential is recalculated from file :
     ./tmp/_ph0/Si.save/charge-density

     Starting wfcs are    8 atomic wfcs

     Band Structure Calculation
     Davidson diagonalization with overlap

     ethr =  1.25E-10,  avg # of iterations = 11.6

     End of band structure calculation

          k = 0.0000 0.0000 0.0000 (  2109 PWs)   bands (ev):

    -5.7199   6.2527   6.2527   6.2527

          k =-0.3333 0.3333-0.3333 (  2114 PWs)   bands (ev):

[...]

     highest occupied level (ev):     6.2527

     Writing output data file Si.save/

[...]

      6 Sym.Ops. (no q -> -q+G )

[...]

     Mode symmetry, C_3v (3m)   point group:

[...]

     Representation     1      1 modes -A_1  L_1  To be done

     Representation     2      1 modes -A_1  L_1  To be done

     Representation     3      2 modes -E    L_3  To be done

     Representation     4      2 modes -E    L_3  To be done

[...]

     Representation #  1 mode #   1

[...]

     Mode symmetry, C_3v (3m)   point group:

     freq (  1 -  2) =        107.5  [cm-1]   --> E    L_3
     freq (  3 -  3) =        292.8  [cm-1]   --> A_1  L_1
     freq (  4 -  4) =        467.6  [cm-1]   --> A_1  L_1
     freq (  5 -  6) =        497.5  [cm-1]   --> E    L_3

[...]

     Mode symmetry, C_4v (4mm)  point group:

[...]

     Representation     1      1 modes -A_1  G_1 D_1  To be done

     Representation     2      1 modes -B_2  G_4 D_2'  To be done

     Representation     3      2 modes -E    G_5 D_5  To be done

     Representation     4      2 modes -E    G_5 D_5  To be done

[...]

     Representation #  4 modes #   5  6

[...]

     Mode symmetry, C_4v (4mm)  point group:

     freq (  1 -  2) =        143.6  [cm-1]   --> E    G_5 D_5
     freq (  3 -  3) =        305.8  [cm-1]   --> A_1  G_1 D_1
     freq (  4 -  5) =        468.8  [cm-1]   --> E    G_5 D_5
     freq (  6 -  6) =        478.2  [cm-1]   --> B_2  G_4 D_2'

     Calculation of q =    0.6666667  -0.0000000   0.6666667

     bravais-lattice index     =            2
     lattice parameter (alat)  =      10.2625  a.u.
     unit-cell volume          =     270.2088 (a.u.)^3
     number of atoms/cell      =            2
     number of atomic types    =            1
     number of electrons       =         8.00
     number of Kohn-Sham states=            4
     kinetic-energy cutoff     =      60.0000  Ry
     charge density cutoff     =     240.0000  Ry
     Exchange-correlation      = PBE ( 1  4  3  4 0 0)

[...]

     atomic species   valence    mass     pseudopotential
        Si             4.00    28.08500     Si( 1.00)

     48 Sym. Ops., with inversion, found

[...]

     site n.     atom                  positions (alat units)
         1           Si  tau(   1) = (   0.0000000   0.0000000   0.0000000  )
         2           Si  tau(   2) = (   0.2500000   0.2500000   0.2500000  )

     number of k points=    52
                       cart. coord. in units 2pi/alat
        k(    1) = (   0.0000000   0.0000000   0.0000000), wk =   0.0312500
        k(    2) = (   0.6666667  -0.0000000   0.6666667), wk =   0.0000000
        k(    3) = (  -0.2500000   0.2500000  -0.2500000), wk =   0.0625000
        k(    4) = (   0.4166667   0.2500000   0.4166667), wk =   0.0000000
        k(    5) = (   0.5000000  -0.5000000   0.5000000), wk =   0.0625000
        k(    6) = (   1.1666667  -0.5000000   1.1666667), wk =   0.0000000
        k(    7) = (   0.0000000   0.5000000   0.0000000), wk =   0.0625000
        k(    8) = (   0.6666667   0.5000000   0.6666667), wk =   0.0000000
        k(    9) = (   0.7500000  -0.2500000   0.7500000), wk =   0.0625000
        k(   10) = (   1.4166667  -0.2500000   1.4166667), wk =   0.0000000
        k(   11) = (   0.5000000   0.0000000   0.5000000), wk =   0.0312500
        k(   12) = (   1.1666667  -0.0000000   1.1666667), wk =   0.0000000
        k(   13) = (   0.0000000  -1.0000000   0.0000000), wk =   0.0312500
        k(   14) = (   0.6666667  -1.0000000   0.6666667), wk =   0.0000000
        k(   15) = (  -0.5000000  -1.0000000   0.0000000), wk =   0.0625000
        k(   16) = (   0.1666667  -1.0000000   0.6666667), wk =   0.0000000
        k(   17) = (  -0.2500000   0.2500000   0.2500000), wk =   0.1250000
        k(   18) = (   0.4166667   0.2500000   0.9166667), wk =   0.0000000
        k(   19) = (   0.2500000   0.2500000   0.2500000), wk =   0.0625000
        k(   20) = (   0.9166667   0.2500000   0.9166667), wk =   0.0000000
        k(   21) = (   0.5000000  -0.5000000  -0.5000000), wk =   0.0625000
        k(   22) = (   1.1666667  -0.5000000   0.1666667), wk =   0.0000000
        k(   23) = (  -0.5000000   0.0000000   0.0000000), wk =   0.0625000
        k(   24) = (   0.1666667  -0.0000000   0.6666667), wk =   0.0000000
        k(   25) = (   0.0000000   0.0000000   0.5000000), wk =   0.0625000
        k(   26) = (   0.6666667  -0.0000000   1.1666667), wk =   0.0000000
        k(   27) = (   0.7500000  -0.2500000  -0.7500000), wk =   0.1250000
        k(   28) = (   1.4166667  -0.2500000  -0.0833333), wk =   0.0000000
        k(   29) = (  -0.7500000  -0.2500000  -0.7500000), wk =   0.0625000
        k(   30) = (  -0.0833333  -0.2500000  -0.0833333), wk =   0.0000000
        k(   31) = (   0.2500000  -0.7500000   0.7500000), wk =   0.1250000
        k(   32) = (   0.9166667  -0.7500000   1.4166667), wk =   0.0000000
        k(   33) = (  -0.7500000   0.7500000  -0.2500000), wk =   0.1250000
        k(   34) = (  -0.0833333   0.7500000   0.4166667), wk =   0.0000000
        k(   35) = (  -0.7500000  -0.7500000   0.2500000), wk =   0.1250000
        k(   36) = (  -0.0833333  -0.7500000   0.9166667), wk =   0.0000000
        k(   37) = (   0.7500000  -0.7500000  -0.2500000), wk =   0.1250000
        k(   38) = (   1.4166667  -0.7500000   0.4166667), wk =   0.0000000
        k(   39) = (   0.5000000   0.0000000  -0.5000000), wk =   0.0625000
        k(   40) = (   1.1666667  -0.0000000   0.1666667), wk =   0.0000000
        k(   41) = (  -0.5000000   0.0000000  -0.5000000), wk =   0.0312500
        k(   42) = (   0.1666667  -0.0000000   0.1666667), wk =   0.0000000
        k(   43) = (   0.0000000  -0.5000000   0.5000000), wk =   0.1250000
        k(   44) = (   0.6666667  -0.5000000   1.1666667), wk =   0.0000000
        k(   45) = (  -0.5000000   0.5000000   0.0000000), wk =   0.1250000
        k(   46) = (   0.1666667   0.5000000   0.6666667), wk =   0.0000000
        k(   47) = (   1.0000000   0.0000000   0.0000000), wk =   0.0625000
        k(   48) = (   1.6666667  -0.0000000   0.6666667), wk =   0.0000000
        k(   49) = (   0.0000000  -1.0000000   0.5000000), wk =   0.0625000
        k(   50) = (   0.6666667  -1.0000000   1.1666667), wk =   0.0000000
        k(   51) = (   0.0000000  -0.5000000  -1.0000000), wk =   0.0625000
        k(   52) = (   0.6666667  -0.5000000  -0.3333333), wk =   0.0000000

     The potential is recalculated from file :
     ./tmp/_ph0/Si.save/charge-density

     Starting wfcs are    8 atomic wfcs

     Band Structure Calculation
     Davidson diagonalization with overlap

     ethr =  1.25E-10,  avg # of iterations = 11.6

     End of band structure calculation

[...]

          k =-0.5000 0.5000 0.0000 (  2119 PWs)   bands (ev):

[...]

          k = 0.6667-0.5000-0.3333 (  2118 PWs)   bands (ev):

    -3.1416  -0.6164   3.6466   4.5983

     highest occupied level (ev):     6.2527

     Writing output data file Si.save/

     bravais-lattice index     =            2
     lattice parameter (alat)  =      10.2625  a.u.
     unit-cell volume          =     270.2088 (a.u.)^3
     number of atoms/cell      =            2
     number of atomic types    =            1
     kinetic-energy cut-off    =      60.0000  Ry
     charge density cut-off    =     240.0000  Ry
     convergence threshold     =      1.0E-16
     beta                      =       0.7000
     number of iterations used =            4
     Exchange-correlation      = PBE ( 1  4  3  4 0 0)

     celldm(1)=   10.26250  celldm(2)=    0.00000  celldm(3)=    0.00000
     celldm(4)=    0.00000  celldm(5)=    0.00000  celldm(6)=    0.00000

     crystal axes: (cart. coord. in units of alat)
               a(1) = ( -0.5000  0.0000  0.5000 )
               a(2) = (  0.0000  0.5000  0.5000 )
               a(3) = ( -0.5000  0.5000  0.0000 )

     reciprocal axes: (cart. coord. in units 2 pi/alat)
               b(1) = ( -1.0000 -1.0000  1.0000 )
               b(2) = (  1.0000  1.0000  1.0000 )
               b(3) = ( -1.0000  1.0000 -1.0000 )

     Atoms inside the unit cell:

     Cartesian axes

     site n.  atom      mass           positions (alat units)
        1     Si  28.0850   tau(    1) = (    0.00000    0.00000    0.00000  )
        2     Si  28.0850   tau(    2) = (    0.25000    0.25000    0.25000  )

     Computing dynamical matrix for
                    q = (   0.6666667  -0.0000000   0.6666667 )

      4 Sym.Ops. (no q -> -q+G )

     G cutoff =  640.2622  (  16889 G-vectors)     FFT grid: ( 36, 36, 36)
     number of k points=    52

     PseudoPot. # 1 for Si read from file:
     ./Si.pbe-n-rrkjus_psl.0.1.UPF
     MD5 check sum: 7b4bf2ea543dc08298462eff3fb52eea
     Pseudo is Ultrasoft + core correction, Zval =  4.0
     Generated using "atomic" code by A. Dal Corso v.5.0.2 svn rev. 9415
     Using radial grid of 1141 points,  4 beta functions with:
                l(1) =   0
                l(2) =   0
                l(3) =   1
                l(4) =   1
     Q(r) pseudized with 0 coefficients

     Mode symmetry, C_2v (mm2)  point group:

     Atomic displacements:
     There are   6 irreducible representations

[...]

     Representation     6      1 modes -B_2  D_4  S_4  To be done

     Alpha used in Ewald sum =   2.5000

[...]

     Representation #  6 mode #   6

     Self-consistent Calculation

[...]

      thresh= 1.550E-09 alpha_mix =  0.700 |ddv_scf|^2 =  1.809E-17

     End of self-consistent calculation

     Convergence has been achieved

     Number of q in the star =   12
     List of q in the star:
          1   0.666666667   0.000000000   0.666666667
          2   0.666666667   0.000000000  -0.666666667
          3  -0.666666667   0.000000000  -0.666666667
          4  -0.666666667   0.000000000   0.666666667
          5   0.000000000  -0.666666667   0.666666667
          6  -0.666666667   0.666666667   0.000000000
          7  -0.666666667  -0.666666667   0.000000000
          8   0.666666667   0.666666667   0.000000000
          9   0.666666667  -0.666666667   0.000000000
         10   0.000000000   0.666666667   0.666666667
         11   0.000000000   0.666666667  -0.666666667
         12   0.000000000  -0.666666667  -0.666666667

     Diagonalizing the dynamical matrix

     q = (    0.666666667  -0.000000000   0.666666667 )

     freq (    1) =       4.630786 [THz] =     154.466394 [cm-1]
     freq (    2) =       6.947679 [THz] =     231.749637 [cm-1]
     freq (    3) =      10.060216 [THz] =     335.572690 [cm-1]
     freq (    4) =      11.177127 [THz] =     372.828842 [cm-1]
     freq (    5) =      14.029519 [THz] =     467.974379 [cm-1]
     freq (    6) =      14.803581 [THz] =     493.794319 [cm-1]

     Mode symmetry, C_2v (mm2)  point group:

     freq (  1 -  1) =        154.5  [cm-1]   --> B_1  D_3  S_3
     freq (  2 -  2) =        231.7  [cm-1]   --> B_2  D_4  S_4
     freq (  3 -  3) =        335.6  [cm-1]   --> A_1  D_1  S_1
     freq (  4 -  4) =        372.8  [cm-1]   --> B_2  D_4  S_4
     freq (  5 -  5) =        468.0  [cm-1]   --> A_2  D_2  S_2
     freq (  6 -  6) =        493.8  [cm-1]   --> A_1  D_1  S_1

     General routines

     Parallel routines

     INITIALIZATION:

     DYNAMICAL MATRIX:

      General routines

   This run was terminated on:  12:27:43   8Apr2022

   JOB DONE.